(declare-const length_0 Int)
(declare-const temp_5_0 Bool)
(declare-const temp_4_0 Bool)
(declare-const max_8 Int)
(declare-const max_21 Int)
(declare-const temp_14_0 Bool)
(declare-const i_0 Int)
(declare-const ab_8 Bool)
(declare-const min_2 Int)
(declare-const i_1 Int)
(declare-const input_5 (Array Int Int))
(declare-const temp_11_0 Bool)
(declare-const max_0 Int)
(declare-const i_10 Int)
(declare-const max_5 Int)
(declare-const ab_7 Bool)
(declare-const min_9 Int)
(declare-const temp_1_0 Bool)
(declare-const i_5 Int)
(declare-const prev_max_0 Int)
(declare-const temp_9_0 Bool)
(declare-const result_2 Int)
(declare-const min_12 Int)
(declare-const i_8 Int)
(declare-const ab_0 Bool)
(declare-const ab_10 Bool)
(declare-const max_12 Int)
(declare-const max_18 Int)
(declare-const ab_4 Bool)
(declare-const min_11 Int)
(declare-const i_9 Int)
(declare-const ab_15 Bool)
(declare-const min_5 Int)
(declare-const temp_0_0 Bool)
(declare-const ab_3 Bool)
(declare-const min_10 Int)
(declare-const i_2 Int)
(declare-const max_1 Int)
(declare-const i_6 Int)
(declare-const ab_9 Bool)
(declare-const max_4 Int)
(declare-const max_16 Int)
(declare-const ab_16 Bool)
(declare-const i_7 Int)
(declare-const max_9 Int)
(declare-const input_2 (Array Int Int))
(declare-const prev_min_0 Int)
(declare-const max_19 Int)
(declare-const temp_12_0 Bool)
(declare-const min_1 Int)
(declare-const result_0 Int)
(declare-const min_6 Int)
(declare-const min_4 Int)
(declare-const ab_13 Bool)
(declare-const max_11 Int)
(declare-const max_7 Int)
(declare-const temp_13_0 Bool)
(declare-const objective Int)
(declare-const temp_10_0 Bool)
(declare-const length_1 Int)
(declare-const temp_7_0 Bool)
(declare-const min_14 Int)
(declare-const input_0 (Array Int Int))
(declare-const ab_6 Bool)
(declare-const max_2 Int)
(declare-const input_3 (Array Int Int))
(declare-const prev_min_1 Int)
(declare-const ab_2 Bool)
(declare-const max_15 Int)
(declare-const min_15 Int)
(declare-const ab_12 Bool)
(declare-const ab_17 Bool)
(declare-const prev_max_1 Int)
(declare-const min_7 Int)
(declare-const i_3 Int)
(declare-const min_0 Int)
(declare-const min_13 Int)
(declare-const max_6 Int)
(declare-const input_4 (Array Int Int))
(declare-const max_3 Int)
(declare-const max_17 Int)
(declare-const min_16 Int)
(declare-const min_3 Int)
(declare-const max_13 Int)
(declare-const input_1 (Array Int Int))
(declare-const result_1 Int)
(declare-const temp_3_0 Bool)
(declare-const max_10 Int)
(declare-const min_8 Int)
(declare-const ab_11 Bool)
(declare-const max_14 Int)
(declare-const max_20 Int)
(declare-const input_6 (Array Int Int))
(declare-const ab_5 Bool)
(declare-const i_4 Int)
(declare-const temp_6_0 Bool)
(declare-const temp_2_0 Bool)
(declare-const i_11 Int)
(declare-const ab_1 Bool)
(declare-const temp_8_0 Bool)
(declare-const ab_14 Bool)
(assert (= prev_max_1 2))
(assert (= prev_min_1 3))
(assert (or ab_0 (= input_1 (store input_0 0 1))))
(assert (or ab_1 (= input_2 (store input_1 1 2))))
(assert (or ab_2 (= input_3 (store input_2 2 3))))
(assert (or ab_3 (= input_4 (store input_3 3 4))))
(assert (or ab_4 (= input_5 (store input_4 4 5))))
(assert (or ab_5 (= input_6 (store input_5 5 6))))
(assert (or ab_6 (= length_1 6)))
(assert (or ab_7 (= i_1 1)))
(assert (or ab_8 (= result_1 0)))
(assert (or ab_9 (= min_1 prev_min_1)))
(assert (or ab_10 (= max_1 prev_max_1)))
(assert (or ab_11 (= temp_0_0 (< i_1 length_1))))
(assert (or ab_12 (= temp_1_0 (< (select input_6 i_1) min_1))))
(assert (or ab_13 (= min_2 (select input_6 i_1))))
(assert (or ab_14 (= temp_2_0 (and (and temp_0_0 (not temp_1_0)) (> (select input_6 i_1) max_1)))))
(assert (or ab_15 (= max_2 (select input_6 i_1))))
(assert (= max_3 (ite temp_2_0 max_2 max_1)))
(assert (= min_3 (ite temp_1_0 min_2 min_1)))
(assert (= max_4 (ite temp_1_0 max_1 max_3)))
(assert (or ab_16 (= i_2 (+ i_1 1))))
(assert (or ab_11 (= temp_3_0 (and temp_0_0 (< i_2 length_1)))))
(assert (or ab_12 (= temp_4_0 (< (select input_6 i_2) min_3))))
(assert (or ab_13 (= min_4 (select input_6 i_2))))
(assert (or ab_14 (= temp_5_0 (and (and temp_3_0 (not temp_4_0)) (> (select input_6 i_2) max_4)))))
(assert (or ab_15 (= max_5 (select input_6 i_2))))
(assert (= max_6 (ite temp_5_0 max_5 max_4)))
(assert (= min_5 (ite temp_4_0 min_4 min_3)))
(assert (= max_7 (ite temp_4_0 max_4 max_6)))
(assert (or ab_16 (= i_3 (+ i_2 1))))
(assert (or ab_11 (= temp_6_0 (and temp_3_0 (< i_3 length_1)))))
(assert (or ab_12 (= temp_7_0 (< (select input_6 i_3) min_5))))
(assert (or ab_13 (= min_6 (select input_6 i_3))))
(assert (or ab_14 (= temp_8_0 (and (and temp_6_0 (not temp_7_0)) (> (select input_6 i_3) max_7)))))
(assert (or ab_15 (= max_8 (select input_6 i_3))))
(assert (= max_9 (ite temp_8_0 max_8 max_7)))
(assert (= min_7 (ite temp_7_0 min_6 min_5)))
(assert (= max_10 (ite temp_7_0 max_7 max_9)))
(assert (or ab_16 (= i_4 (+ i_3 1))))
(assert (or ab_11 (= temp_9_0 (and temp_6_0 (< i_4 length_1)))))
(assert (or ab_12 (= temp_10_0 (< (select input_6 i_4) min_7))))
(assert (or ab_13 (= min_8 (select input_6 i_4))))
(assert (or ab_14 (= temp_11_0 (and (and temp_9_0 (not temp_10_0)) (> (select input_6 i_4) max_10)))))
(assert (or ab_15 (= max_11 (select input_6 i_4))))
(assert (= max_12 (ite temp_11_0 max_11 max_10)))
(assert (= min_9 (ite temp_10_0 min_8 min_7)))
(assert (= max_13 (ite temp_10_0 max_10 max_12)))
(assert (or ab_16 (= i_5 (+ i_4 1))))
(assert (or ab_11 (= temp_12_0 (and temp_9_0 (< i_5 length_1)))))
(assert (or ab_12 (= temp_13_0 (< (select input_6 i_5) min_9))))
(assert (or ab_13 (= min_10 (select input_6 i_5))))
(assert (or ab_14 (= temp_14_0 (and (and temp_12_0 (not temp_13_0)) (> (select input_6 i_5) max_13)))))
(assert (or ab_15 (= max_14 (select input_6 i_5))))
(assert (= max_15 (ite temp_14_0 max_14 max_13)))
(assert (= min_11 (ite temp_13_0 min_10 min_9)))
(assert (= max_16 (ite temp_13_0 max_13 max_15)))
(assert (or ab_16 (= i_6 (+ i_5 1))))
(assert (= min_12 (ite temp_12_0 min_11 min_9)))
(assert (= max_17 (ite temp_12_0 max_16 max_13)))
(assert (= i_7 (ite temp_12_0 i_6 i_5)))
(assert (= min_13 (ite temp_9_0 min_12 min_7)))
(assert (= max_18 (ite temp_9_0 max_17 max_10)))
(assert (= i_8 (ite temp_9_0 i_7 i_4)))
(assert (= min_14 (ite temp_6_0 min_13 min_5)))
(assert (= max_19 (ite temp_6_0 max_18 max_7)))
(assert (= i_9 (ite temp_6_0 i_8 i_3)))
(assert (= min_15 (ite temp_3_0 min_14 min_3)))
(assert (= max_20 (ite temp_3_0 max_19 max_4)))
(assert (= i_10 (ite temp_3_0 i_9 i_2)))
(assert (= min_16 (ite temp_0_0 min_15 min_1)))
(assert (= max_21 (ite temp_0_0 max_20 max_1)))
(assert (= i_11 (ite temp_0_0 i_10 i_1)))
(assert (or ab_17 (= result_2 (* min_16 max_21))))
(assert (= objective (+ (ite ab_0 1 0) (ite ab_5 1 0) (ite ab_10 1 0) (ite ab_14 1 0) (ite ab_1 1 0) (ite ab_6 1 0) (ite ab_9 1 0) (ite ab_13 1 0) (ite ab_2 1 0) (ite ab_17 1 0) (ite ab_12 1 0) (ite ab_7 1 0) (ite ab_3 1 0) (ite ab_16 1 0) (ite ab_11 1 0) (ite ab_8 1 0) (ite ab_4 1 0) (ite ab_15 1 0))))